

param maxDim := 9;
param maxNum := 9;

# (row, col, number)
set FIXED :=
4 3 5
5 2 9
5 8 5
6 7 1;

set NEROR :=
1 1 2
1 7 8
4 8 9
6 2 3
6 3 4;

set NEROC :=
2,3,4
2,6,7
4,4,5
4,5,6
4,8,9
5,2,3
5,7,8
6,1,2
6,2,3
6,5,6
8,2,3
8,3,4
9,8,9;

set BIANCOR :=
1,5,6
2,1,2
2,5,6
3,4,5
4,2,3
5,1,2
5,3,4
7,3,4
7,5,6
7,7,8
8,3,4
8,5,6
9,2,3
9,5,6;

set BIANCOC :=
1,5,6
1,7,8
1,8,9
2,1,2
2,8,9
3,2,3
3,5,6
4,6,7
5,6,7
6,4,5
7,4,5
7,5,6
7,8,9
8,1,2
8,5,6;

